GLPSOL--GLPK LP/MIP Solver 5.0
Parameter(s) specified in the command line:
 --lp ../modeles/20_359.lp --log 20_359.log
Reading problem data from '../modeles/20_359.lp'...
7261 rows, 14400 columns, 50360 non-zeros
7180 integer variables, all of which are binary
21687 lines were read
GLPK Integer Optimizer 5.0
7261 rows, 14400 columns, 50360 non-zeros
7180 integer variables, all of which are binary
Preprocessing...
7080 constraint coefficient(s) were reduced
7261 rows, 14380 columns, 50340 non-zeros
7180 integer variables, all of which are binary
Scaling...
 A: min|aij| =  3.104e-05  max|aij| =  4.000e+00  ratio =  1.289e+05
GM: min|aij| =  5.278e-02  max|aij| =  1.895e+01  ratio =  3.590e+02
EQ: min|aij| =  2.786e-03  max|aij| =  1.000e+00  ratio =  3.590e+02
2N: min|aij| =  1.953e-03  max|aij| =  1.755e+00  ratio =  8.985e+02
Constructing initial basis...
Size of triangular part is 7261
Solving LP relaxation...
GLPK Simplex Optimizer 5.0
7261 rows, 14380 columns, 50340 non-zeros
      0: obj =   4.000000000e+01 inf =   9.950e+01 (41)
Perturbing LP to avoid stalling [199]...
    419: obj =   4.996935133e-01 inf =   0.000e+00 (0)
Removing LP perturbation [1303]...
*  1303: obj =  -4.470769499e+00 inf =   1.216e-13 (0) 1
OPTIMAL LP SOLUTION FOUND
Integer optimization begins...
Long-step dual simplex will be used
+  1303: mip =     not found yet >=              -inf        (1; 0)
+  1527: mip =     not found yet >=  -4.470769499e+00        (224; 0)
+  1730: mip =     not found yet >=  -4.470769499e+00        (424; 0)
+  1874: >>>>>  -4.470769499e+00 >=  -4.470769499e+00 < 0.1% (565; 0)
+  1874: mip =  -4.470769499e+00 >=     tree is empty   0.0% (0; 1129)
INTEGER OPTIMAL SOLUTION FOUND
Time used:   13.2 secs
Memory used: 21.1 Mb (22129904 bytes)
